%mem=5GB
%nproc=4
#HF/6-31G* nosymm opt 
 
Mol rotamer scan

0,1
N   -6.24600   1.00600  -0.26800
N   -6.89100  -0.89600  -1.29200
N   -0.35000   3.28400  -0.92900
N    0.41600   1.18300  -1.37900
N    5.65000   1.71100   0.56200
N   -1.75200   1.37000  -1.14500
C   -5.21000   2.89500   0.89300
C   -5.15200   1.82200  -0.14300
C   -5.95800   0.04300  -1.12100
C   -4.05900   1.44300  -0.87900
C   -2.80000   2.13100  -0.86800
C   -2.67100   3.48800  -0.66300
C   -1.41300   4.04000  -0.69200
C   -0.60400   2.00700  -1.16300
C    1.73800   1.30500  -0.90900
C    2.17800   0.49300   0.12800
C    3.48200   0.62100   0.61800
C    4.35700   1.58000   0.08800
C    6.28900   0.68500   1.40000
C    6.38700   2.97900   0.44700
C    3.89300   2.39900  -0.95000
C    2.59000   2.26600  -1.43900
S   -4.33500  -0.06600  -1.71000
H   -4.26300   2.98600   1.42700
H   -5.97800   2.64800   1.62700
H   -5.47800   3.85100   0.44500
H   -7.68900  -0.73800  -0.69800
H   -6.55400  -1.83800  -1.39600
H   -0.00000   0.27700  -1.27900
H   -3.52300   4.13300  -0.55300
H   -1.23700   5.10700  -0.54400
H    1.50000  -0.24000   0.55600
H    3.79700  -0.02000   1.43400
H    7.37300   0.82400   1.41700
H    6.07800  -0.31100   0.99900
H    5.90700   0.75000   2.42300
H    7.18200   3.03600   1.19600
H    5.70900   3.82300   0.60200
H    6.83500   3.05700  -0.54800
H    4.54400   3.14400  -1.39500
H    2.22400   2.91200  -2.23300

