%mem=5GB
%nproc=4
#HF/6-31G* nosymm opt 
 
Mol rotamer scan

0,1
N   -5.59900   0.35400  -0.41800
N   -7.59300   1.39600  -0.60400
N   -0.04000   3.34500  -1.20300
N    0.60000   1.22200  -0.67500
N    5.71300   2.31500   1.30000
N   -1.56200   1.56600  -0.75600
C   -3.33600  -0.55400  -0.32200
C   -4.25400   0.60800  -0.51400
C   -6.26000   1.47700  -0.60300
C   -3.92700   1.91500  -0.80100
C   -2.57500   2.39900  -0.94500
C   -2.35200   3.72100  -1.26300
C   -1.06100   4.17100  -1.38400
C   -0.37000   2.09800  -0.91500
C    1.89800   1.48400  -0.19600
C    2.21800   1.18100   1.12300
C    3.49700   1.46100   1.61500
C    4.45900   2.05800   0.79600
C    5.85100   3.05500   2.56100
C    6.90200   2.30100   0.43800
C    4.12500   2.36800  -0.52600
C    2.84400   2.08900  -1.01600
S   -5.35700   2.90400  -0.97100
H   -2.72400  -0.71300  -1.21000
H   -3.91400  -1.46100  -0.14300
H   -2.68800  -0.39200   0.54000
H   -7.90600   0.44100  -0.53000
H   -8.07500   2.00700  -1.24000
H    0.12300   0.46100  -0.23400
H   -3.16900   4.40800  -1.41300
H   -0.82100   5.20800  -1.62800
H    1.47000   0.72600   1.76600
H    3.75100   1.20700   2.64100
H    6.70000   3.74300   2.51100
H    6.01100   2.35400   3.38400
H    4.94600   3.63600   2.76000
H    7.79600   2.10500   1.03700
H    7.01300   3.26800  -0.06200
H    6.81000   1.51500  -0.31700
H    4.84800   2.85100  -1.17500
H    2.56800   2.35100  -2.03300

