%mem=1GB
# opt ram1 
 
Mol 
 
0 1
N           1.37400        -8.61900        25.82600
N           3.18400        -7.90800        24.53100
N          -2.11800        -4.41200        29.33100
N          -3.42000        -6.30800        29.66700
N          -6.04300       -11.32000        29.46400
N          -1.42400        -6.50400        28.37200
C          -0.43300        -9.24400        27.24600
C           0.48000        -8.17100        26.68800
C           2.16500        -7.68100        25.40100
C           0.51400        -6.78500        26.95300
C          -0.35300        -5.89800        27.80000
C          -0.12200        -4.52800        27.98000
C          -1.03700        -3.82100        28.76100
C          -2.27600        -5.73800        29.09900
C          -4.01600        -7.58000        29.58400
C          -3.74100        -8.50600        28.57300
C          -4.40500        -9.73000        28.53200
C          -5.36100       -10.07000        29.50100
C          -5.88400       -12.23500        28.32900
C          -7.21600       -11.54300        30.30900
C          -5.62300        -9.13200        30.51300
C          -4.96600        -7.90600        30.54900
S           1.85900        -6.11300        26.05000
H          -0.77000        -9.02000        28.25700
H           0.05000       -10.22000        27.30700
H          -1.31900        -9.37100        26.62300
H           3.69800        -7.14300        24.09100
H           3.18600        -8.76800        24.00700
H          -3.89100        -5.67000        30.29500
H           0.72100        -4.02400        27.53300
H          -0.91400        -2.76000        28.93100
H          -3.04000        -8.29400        27.78600
H          -4.16300       -10.39000        27.71400
H          -6.20800       -13.24400        28.58800
H          -4.84600       -12.32200        28.00600
H          -6.47100       -11.90300        27.47300
H          -7.54800       -12.58100        30.27200
H          -8.04000       -10.90900        29.97900
H          -7.01200       -11.30900        31.35400
H          -6.35200        -9.31800        31.28500
H          -5.21200        -7.20000        31.33000

