%mem=5GB
%nproc=3
#HF/6-31G* nosymm SCF=Tight opt=(Z-MATRIX,MaxCycle=200) 
 
Mol-Water Dimer

0,1 
N      -3.01331  -2.51155  -0.41219
N99    -5.22756  -3.08025   0.01776
N      -0.97817   3.56035   0.13129
N       1.03999   2.52808   0.16831
N       4.96579  -1.51547  -0.00870
N      -0.84043   1.19804   0.04070
C      -0.76160  -1.67732  -0.87375
C      -2.17855  -1.41595  -0.45381
C      -4.20008  -2.18855  -0.05691
C      -2.74326  -0.23257  -0.11111
C      -2.16161   1.10984  -0.02969
C      -2.95851   2.25384  -0.01870
C      -2.28736   3.45662   0.06768
C      -0.31018   2.40783   0.10702
C       2.00032   1.48794   0.11857
C       2.04918   0.49089   1.08054
C       3.01909  -0.49053   1.04340
C       4.00146  -0.50964   0.04361
C       5.18471  -2.31613   1.17650
C       6.11511  -1.31633  -0.86371
C       3.95701   0.51458  -0.90628
C       2.96534   1.47999  -0.87153
S      -4.44477  -0.50304   0.26866
H      -0.32370  -0.82986  -1.37539
H      -0.74791  -2.54516  -1.52064
H      -0.14764  -1.89114  -0.00521
H      -5.97008  -2.88098   0.65016
H      -4.93488  -4.03367   0.00875
H       1.36351   3.46879   0.16814
H      -4.02699   2.21893  -0.09266
H      -2.83523   4.38364   0.08106
H       1.31685   0.47914   1.86562
H       3.00679  -1.23797   1.81091
H       5.96939  -3.03215   0.97745
H       4.29634  -2.88014   1.43166
H       5.47495  -1.72296   2.04398
H       6.75956  -2.18123  -0.79487
H       6.69756  -0.43358  -0.59790
H       5.81297  -1.22539  -1.89952
H       4.68426   0.56815  -1.69104
H       2.95010   2.24274  -1.63040
X1     -4.53573  -3.31256   1.32826
X2     -4.36546  -4.12728  -0.62296
H1W  N99  roh X2 90.0 X1 180.0 
X3   H1W      1.5000 N99  90.0 X2   0.0 
O1W   H1W      0.9474 X3  90.0 X2 180.0 
H2W   O1W      0.9474 H1W   105.5395 X3  phi 

roh     2.0168
phi -56.320262
