%mem=5GB
%nproc=4
#HF/6-31G* nosymm opt 
 
Mol rotamer scan

0,1
N   -3.98900  -2.23200  -1.73600
N   -2.74700  -4.06300  -2.19200
N   -1.24200   3.27100  -0.09100
N    0.52500   2.30200   0.74700
N    4.85500  -1.22200   1.03200
N   -0.98500   0.90600  -0.24000
C   -5.07800  -0.14500  -1.06900
C   -3.84100  -0.91600  -1.38500
C   -2.79800  -2.79400  -1.78300
C   -2.54300  -0.49800  -1.23700
C   -2.15600   0.82900  -0.84700
C   -2.88600   1.96100  -1.14100
C   -2.39900   3.18100  -0.73700
C   -0.61900   2.12300   0.09900
C    1.62500   1.42800   0.84800
C    2.80500   1.73100   0.17900
C    3.89200   0.85100   0.23800
C    3.79500  -0.34800   0.95200
C    5.26700  -1.76200   2.33400
C    5.84100  -1.33800  -0.05000
C    2.59900  -0.64900   1.60800
C    1.51400   0.23100   1.54800
S   -1.41500  -1.81400  -1.43800
H   -4.93300   0.50800  -0.20900
H   -5.88300  -0.83900  -0.82200
H   -5.40100   0.43800  -1.93100
H   -1.92200  -4.32100  -2.70500
H   -3.63700  -4.36600  -2.55400
H    0.71600   3.27700   0.62300
H   -3.78100   1.92700  -1.73600
H   -2.92100   4.11700  -0.94600
H    2.87700   2.65600  -0.38600
H    4.81500   1.11000  -0.27000
H    6.35500  -1.86200   2.38200
H    4.81400  -2.74600   2.48500
H    4.94400  -1.09500   3.13900
H    6.31700  -2.32300  -0.02000
H    6.61000  -0.56800   0.06100
H    5.35100  -1.21900  -1.02000
H    2.50200  -1.58700   2.14800
H    0.57300  -0.01300   2.03300

