%mem=5GB
%nproc=4
#HF/6-31G* nosymm opt 
 
Mol rotamer scan

0,1
N    5.17000  -2.10000  -0.03600
N    4.32100  -3.76900   1.21900
N    1.76700   3.11700  -1.33000
N   -0.14900   2.09800  -1.08600
N   -4.22500  -1.05900   1.06700
N    1.69300   0.84400  -0.61300
C    5.73300  -0.25700  -1.54700
C    4.82700  -0.86800  -0.53000
C    4.18800  -2.53500   0.72900
C    3.59100  -0.41500  -0.14800
C    3.01500   0.82500  -0.58500
C    3.75500   1.95100  -0.88000
C    3.09300   3.09200  -1.26100
C    1.16900   1.98900  -0.99000
C   -1.13800   1.27500  -0.51400
C   -1.36100  -0.00400  -1.01200
C   -2.38900  -0.79400  -0.48800
C   -3.21900  -0.29600   0.52200
C   -4.31200  -1.21300   2.52500
C   -4.92400  -2.08100   0.27800
C   -3.00200   1.00000   0.99900
C   -1.97300   1.78800   0.47200
S    2.73200  -1.60300   0.79700
H    5.16900   0.21700  -2.35000
H    6.35100  -1.03600  -1.99500
H    6.40100   0.46700  -1.08300
H    5.16600  -4.20800   0.88900
H    3.48000  -4.32000   1.25200
H   -0.30700   3.08700  -1.08300
H    4.82200   1.98200  -0.74800
H    3.61600   4.02100  -1.49600
H   -0.71100  -0.38500  -1.79500
H   -2.52800  -1.80300  -0.86200
H   -4.62200  -2.22900   2.78700
H   -5.04300  -0.50600   2.92700
H   -3.33900  -1.01700   2.98500
H   -5.91600  -2.26700   0.70000
H   -4.35400  -3.01400   0.28400
H   -5.04500  -1.74000  -0.75500
H   -3.64900   1.40100   1.77300
H   -1.81400   2.80000   0.83500

