%mem=5GB
%nproc=4
#HF/6-31G* nosymm opt 
 
Mol rotamer scan

0,1
N    6.38300   0.18100  -0.89600
N    8.16700   0.78500  -2.13900
N    1.19900   3.81700  -0.28000
N    0.66200   1.96300   0.93400
N   -4.92700   2.36100   0.70500
N    2.64500   1.94200   0.00100
C    4.36700  -0.22300   0.41900
C    5.14800   0.64300  -0.51300
C    6.93000   1.05200  -1.71700
C    4.80000   1.87200  -1.03000
C    3.55100   2.54000  -0.75800
C    3.30800   3.78300  -1.30100
C    2.11000   4.40300  -1.04400
C    1.54200   2.63200   0.19600
C   -0.74300   2.06200   0.89900
C   -1.48900   1.05200   0.30600
C   -2.88300   1.15100   0.24700
C   -3.54800   2.27100   0.76600
C   -5.64200   3.62600   0.93300
C   -5.77600   1.16300   0.62100
C   -2.77800   3.28900   1.34500
C   -1.38400   3.18500   1.40500
S    6.06600   2.51200  -2.05000
H    4.15000   0.30700   1.34600
H    4.94000  -1.11700   0.66700
H    3.43200  -0.53900  -0.04400
H    8.54000  -0.03900  -1.69400
H    8.77500   1.57600  -2.26300
H    1.02900   1.03200   0.94600
H    4.03700   4.27500  -1.92500
H    1.85800   5.38400  -1.45000
H   -0.98200   0.18900  -0.11500
H   -3.44500   0.35600  -0.23300
H   -6.66600   3.56100   0.55600
H   -5.13600   4.44200   0.40800
H   -5.67100   3.84900   2.00300
H   -6.78600   1.37700   0.98200
H   -5.35700   0.36100   1.23600
H   -5.83800   0.82500  -0.41700
H   -3.25000   4.17200   1.76100
H   -0.78500   3.98200   1.83900

