%mem=5GB
%nproc=4
#HF/6-31G* nosymm opt 
 
Mol rotamer scan

0,1
N    6.65100   1.73900  -1.47700
N    7.21500  -0.17100  -2.53300
N    1.06100   2.35600   1.48400
N    0.15600   0.77000   0.11900
N   -5.23500   2.24000   0.11800
N    2.30300   1.12000  -0.13100
C    5.68400   3.74500  -0.46200
C    5.62600   2.28200  -0.74600
C    6.35700   0.48200  -1.74800
C    4.57500   1.43400  -0.50600
C    3.38500   1.80600   0.20500
C    3.35800   2.74500   1.21400
C    2.16200   3.00600   1.83600
C    1.22200   1.44100   0.54100
C   -1.18600   1.19600   0.12600
C   -1.90800   1.22300   1.31300
C   -3.26100   1.57700   1.30500
C   -3.90600   1.88200   0.10400
C   -6.20900   1.42000   0.85100
C   -5.79600   3.15800  -0.88200
C   -3.17700   1.83000  -1.08900
C   -1.82400   1.47500  -1.07800
S    4.79000  -0.10200  -1.30300
H    4.70600   4.21300  -0.57100
H    6.35900   4.22600  -1.17200
H    6.07500   3.92900   0.53800
H    7.96800   0.42600  -2.83700
H    6.80800  -0.80100  -3.20200
H    0.47600   0.34400  -0.73000
H    4.25100   3.22400   1.57400
H    2.06700   3.73300   2.64600
H   -1.39800   0.98700   2.24400
H   -3.81000   1.62700   2.24000
H   -7.15600   1.37000   0.30600
H   -6.39000   1.85700   1.83600
H   -5.82700   0.40300   0.97800
H   -6.69100   3.64500  -0.48300
H   -6.06500   2.60600  -1.78700
H   -5.06500   3.93000  -1.13600
H   -3.66400   2.04700  -2.03500
H   -1.26200   1.42100  -2.00600

