%mem=5GB
%nproc=4
#HF/6-31G* nosymm opt 
 
Mol rotamer scan

0,1
N   -6.21200   1.18400  -0.09900
N   -6.86200  -0.93700  -0.49700
N   -0.25400   3.08800  -1.22800
N    0.48500   0.94600  -0.97100
N    5.73800   1.76200   0.74900
N   -1.68600   1.21500  -0.88400
C   -5.17500   3.33300   0.44900
C   -5.10700   1.98900  -0.19600
C   -5.91600  -0.00100  -0.59600
C   -3.99900   1.38800  -0.73700
C   -2.72700   2.03400  -0.89700
C   -2.57800   3.38500  -1.12300
C   -1.31000   3.88900  -1.27800
C   -0.52600   1.80400  -1.05900
C    1.79400   1.20500  -0.52400
C    2.69200   1.88800  -1.33700
C    4.01300   2.08100  -0.91900
C    4.44900   1.57000   0.30800
C    5.97400   2.30700   2.09200
C    6.85900   1.88300  -0.19200
C    3.54400   0.86800   1.10800
C    2.22400   0.67400   0.68800
S   -4.27800  -0.30300  -1.06400
H   -4.24500   3.57900   0.96000
H   -5.97100   3.33600   1.19600
H   -5.41100   4.10200  -0.28500
H   -7.67500  -0.59400  -0.01200
H   -6.54000  -1.86700  -0.28900
H    0.05300   0.12000  -0.60600
H   -3.42100   4.04000  -1.25100
H   -1.11700   4.94700  -1.46600
H    2.34400   2.28300  -2.28700
H    4.69300   2.64400  -1.55000
H    6.82800   2.99000   2.08500
H    6.17900   1.49100   2.79000
H    5.09300   2.85600   2.43700
H    7.79400   1.60500   0.30100
H    6.93700   2.91400  -0.55000
H    6.70600   1.21800  -1.04700
H    3.87600   0.45500   2.05600
H    1.52700   0.11600   1.30500

