%mem=5GB
%nproc=4
#HF/6-31G* nosymm opt 
 
Mol rotamer scan

0,1
N   -2.93100  -2.72100  -0.50900
N   -4.99200  -3.43100  -1.06500
N   -0.97300   3.27700  -1.33300
N    0.80700   2.44000  -0.37700
N    4.86000  -1.19200   0.96400
N   -0.91500   0.98500  -0.67300
C   -0.79800  -1.69800   0.09600
C   -2.16000  -1.58500  -0.50500
C   -4.07500  -2.46200  -1.10400
C   -2.76900  -0.47100  -1.04300
C   -2.14300   0.82500  -1.13400
C   -2.82500   1.88100  -1.70000
C   -2.21000   3.10600  -1.78600
C   -0.42400   2.20000  -0.80700
C    1.81000   1.50600  -0.05600
C    1.75200   0.80400   1.14100
C    2.76600  -0.09800   1.47700
C    3.86400  -0.29200   0.62900
C    6.16500  -1.20900   0.28800
C    4.59300  -2.34100   1.84400
C    3.92300   0.44900  -0.56000
C    2.90500   1.34800  -0.89500
S   -4.38900  -0.83100  -1.58600
H   -0.03000  -1.44200  -0.63500
H   -0.61800  -2.72000   0.42900
H   -0.70200  -1.03900   0.95800
H   -5.93700  -3.12000  -0.92100
H   -4.66900  -4.19600  -0.49500
H    1.07900   3.26600  -0.87600
H   -3.82800   1.76100  -2.07900
H   -2.70000   3.97700  -2.22700
H    0.90500   0.96000   1.80300
H    2.70000  -0.63300   2.41900
H    6.89500  -1.77200   0.87600
H    6.53900  -0.18800   0.16800
H    6.06900  -1.67500  -0.69700
H    5.32200  -3.13800   1.67500
H    3.59500  -2.74200   1.64500
H    4.65000  -2.02700   2.88900
H    4.75300   0.32300  -1.24800
H    2.95400   1.91500  -1.82100

