%mem=5GB
%nproc=4
#HF/6-31G* nosymm opt=ModRedundant 
 
Mol dihedral scan

0,1
N   -3.77789  -2.23130   0.42921
N   -3.90862  -3.56120  -1.47485
N   -0.97817   3.56035   0.13129
N    1.03999   2.52808   0.16831
N    4.96579  -1.51547  -0.00870
N   -0.84043   1.19804   0.04070
C   -3.47642  -0.69392   2.30664
C   -3.30647  -1.00623   0.84857
C   -3.57742  -2.41192  -0.82225
C   -2.74326  -0.23257  -0.11111
C   -2.16161   1.10984  -0.02969
C   -2.95851   2.25384  -0.01870
C   -2.28736   3.45662   0.06768
C   -0.31018   2.40783   0.10702
C    2.00032   1.48794   0.11857
C    2.04918   0.49089   1.08054
C    3.01909  -0.49053   1.04340
C    4.00146  -0.50964   0.04361
C    5.18471  -2.31613   1.17650
C    6.11511  -1.31633  -0.86371
C    3.95701   0.51458  -0.90628
C    2.96534   1.47999  -0.87153
S   -2.78455  -1.10644  -1.64316
H   -2.69808  -0.04685   2.67688
H   -3.48644  -1.62428   2.85993
H   -4.42229  -0.18930   2.47313
H   -4.10240  -3.50222  -2.44950
H   -4.53000  -4.15015  -0.96320
H    1.36351   3.46879   0.16814
H   -4.02699   2.21893  -0.09266
H   -2.83523   4.38364   0.08106
H    1.31685   0.47914   1.86562
H    3.00679  -1.23797   1.81091
H    5.96939  -3.03215   0.97745
H    4.29634  -2.88014   1.43166
H    5.47495  -1.72296   2.04398
H    6.75956  -2.18123  -0.79487
H    6.69756  -0.43358  -0.59790
H    5.81297  -1.22539  -1.89952
H    4.68426   0.56815  -1.69104
H    2.95010   2.24274  -1.63040

27 2 9 23 F
15 4 14 3 F
23 10 11 6 -80.0 B
23 10 11 6 S 8 10.0
14 4 15 16 F
19 5 18 17 F

