%mem=5GB
%nproc=4
#HF/6-31G* nosymm opt 
 
Mol rotamer scan

0,1
N   -6.18700   1.34600   0.04600
N   -6.88500  -0.79200   0.19800
N   -0.20400   2.76900  -1.55400
N    0.49200   0.74400  -0.76600
N    5.70700   2.12300   0.76800
N   -1.67000   1.07600  -0.74200
C   -5.10100   3.54000   0.03000
C   -5.06700   2.07500  -0.25600
C   -5.92200   0.06800  -0.13800
C   -3.97800   1.33200  -0.63300
C   -2.69400   1.88800  -0.95600
C   -2.52000   3.13500  -1.51600
C   -1.24300   3.55500  -1.80000
C   -0.50000   1.57500  -1.06500
C    1.81000   1.07200  -0.39500
C    2.20400   0.94200   0.93100
C    3.50400   1.28800   1.31500
C    4.42200   1.78400   0.38100
C    6.59500   2.93200  -0.07900
C    6.34300   1.51200   1.94500
C    4.00300   1.92800  -0.94900
C    2.70300   1.57800  -1.33100
S   -4.29500  -0.37900  -0.52200
H   -4.16100   3.88500   0.45800
H   -5.88900   3.74900   0.75500
H   -5.32800   4.10400  -0.87400
H   -7.68600  -0.31800   0.58500
H   -6.58100  -1.64600   0.63300
H    0.04200   0.04700  -0.20500
H   -3.35000   3.75600  -1.80200
H   -1.03000   4.52700  -2.24900
H    1.49400   0.57400   1.66600
H    3.78500   1.19000   2.35900
H    7.42700   3.33200   0.50700
H    6.04200   3.77500  -0.50500
H    6.99600   2.31900  -0.89100
H    7.43300   1.56900   1.87100
H    6.06000   0.45900   2.02200
H    6.02500   2.03600   2.85100
H    4.68100   2.30600  -1.70600
H    2.37200   1.70300  -2.35800

