%mem=5GB
%nproc=4
#HF/6-31G* nosymm opt=ModRedundant 
 
Mol dihedral scan

0,1
N   -3.00695  -2.49330  -0.58804
N   -5.21880  -3.08171  -0.17246
N   -0.97998   3.55743   0.17688
N    1.03999   2.52808   0.16831
N    4.96579  -1.51547  -0.00870
N   -0.83866   1.20046  -0.00304
C   -0.75819  -1.63830  -1.02534
C   -2.17414  -1.39543  -0.59116
C   -4.19304  -2.18601  -0.21691
C   -2.73964  -0.22680  -0.20228
C   -2.15992   1.11263  -0.07231
C   -2.95866   2.25399  -0.01561
C   -2.28921   3.45385   0.11376
C   -0.31018   2.40783   0.10702
C    2.00032   1.48794   0.11857
C    2.04918   0.49089   1.08054
C    3.01909  -0.49053   1.04340
C    4.00146  -0.50964   0.04361
C    5.18471  -2.31613   1.17650
C    6.11511  -1.31633  -0.86371
C    3.95701   0.51458  -0.90628
C    2.96534   1.47999  -0.87153
S   -4.43940  -0.51438   0.17269
H   -0.32339  -0.77179  -1.49617
H   -0.74527  -2.48115  -1.70449
H   -0.14095  -1.88357  -0.16751
H   -5.95950  -2.90770   0.46946
H   -4.92458  -4.03359  -0.21832
H    1.36351   3.46879   0.16814
H   -4.02733   2.21999  -0.08729
H   -2.83855   4.37874   0.16385
H    1.31685   0.47914   1.86562
H    3.00679  -1.23797   1.81091
H    5.96939  -3.03215   0.97745
H    4.29634  -2.88014   1.43166
H    5.47495  -1.72296   2.04398
H    6.75956  -2.18123  -0.79487
H    6.69756  -0.43358  -0.59790
H    5.81297  -1.22539  -1.89952
H    4.68426   0.56815  -1.69104
H    2.95010   2.24274  -1.63040

27 2 9 23 F
15 4 14 3 -180.0 B
15 4 14 3 S 8 10.0
23 10 11 6 F
14 4 15 16 F
19 5 18 17 F

