%mem=5GB
%nproc=4
#HF/6-31G* nosymm opt=ModRedundant 
 
Mol dihedral scan

0,1
N   -3.84607   6.77953  -0.29616
N   -6.06938   6.87684  -0.97336
N   -0.76733   1.15961   0.19683
N    1.03999   2.52808   0.16831
N    4.96579  -1.51547  -0.00870
N   -1.04164   3.49954  -0.04226
C   -1.54427   6.43415   0.45326
C   -2.84640   5.86826  -0.03320
C   -4.91867   6.20362  -0.69216
C   -3.16474   4.56808  -0.24513
C   -2.35889   3.35447  -0.08773
C   -2.94520   2.09283   0.00398
C   -2.07476   1.03100   0.14337
C   -0.31018   2.40783   0.10702
C    2.00032   1.48794   0.11857
C    2.04918   0.49089   1.08054
C    3.01909  -0.49053   1.04340
C    4.00146  -0.50964   0.04361
C    5.18471  -2.31613   1.17650
C    6.11511  -1.31633  -0.86371
C    3.95701   0.51458  -0.90628
C    2.96534   1.47999  -0.87153
S   -4.83998   4.47417  -0.79034
H   -1.02239   5.75143   1.10373
H   -1.74354   7.36538   0.96796
H   -0.89042   6.64334  -0.38683
H   -6.69930   6.46692  -1.62616
H   -5.94487   7.86079  -1.07870
H    1.36351   3.46879   0.16814
H   -4.00606   1.94217  -0.01075
H   -2.45346   0.02586   0.22085
H    1.31685   0.47914   1.86562
H    3.00679  -1.23797   1.81091
H    5.96939  -3.03215   0.97745
H    4.29634  -2.88014   1.43166
H    5.47495  -1.72296   2.04398
H    6.75956  -2.18123  -0.79487
H    6.69756  -0.43358  -0.59790
H    5.81297  -1.22539  -1.89952
H    4.68426   0.56815  -1.69104
H    2.95010   2.24274  -1.63040

27 2 9 23 F
15 4 14 3 10.0 B
15 4 14 3 S 7 10.0
23 10 11 6 F
14 4 15 16 F
19 5 18 17 F

