%mem=5GB
%nproc=4
#HF/6-31G* nosymm opt=ModRedundant 
 
Mol dihedral scan

0,1
N   -3.21050   1.88729  -4.69860
N   -5.36926   1.11586  -5.09338
N   -0.93318   2.46809   1.28318
N    1.03999   2.52808   0.16831
N    4.96579  -1.51547  -0.00870
N   -0.88230   2.23580  -1.07291
C   -1.01027   2.73228  -4.04735
C   -2.35373   2.18583  -3.66144
C   -4.33200   1.44100  -4.27192
C   -2.83304   1.95020  -2.41586
C   -2.20388   2.13258  -1.10517
C   -2.95663   2.18908   0.06704
C   -2.24249   2.35744   1.23590
C   -0.31018   2.40783   0.10702
C    2.00032   1.48794   0.11857
C    2.04918   0.49089   1.08054
C    3.01909  -0.49053   1.04340
C    4.00146  -0.50964   0.04361
C    5.18471  -2.31613   1.17650
C    6.11511  -1.31633  -0.86371
C    3.95701   0.51458  -0.90628
C    2.96534   1.47999  -0.87153
S   -4.48042   1.33272  -2.54766
H   -0.61300   3.39921  -3.29971
H   -1.10587   3.24523  -4.99579
H   -0.29830   1.92276  -4.16904
H   -6.01910   0.43338  -4.77260
H   -5.11018   1.02371  -6.05209
H    1.36351   3.46879   0.16814
H   -4.02644   2.12754   0.07462
H   -2.75486   2.41066   2.18160
H    1.31685   0.47914   1.86562
H    3.00679  -1.23797   1.81091
H    5.96939  -3.03215   0.97745
H    4.29634  -2.88014   1.43166
H    5.47495  -1.72296   2.04398
H    6.75956  -2.18123  -0.79487
H    6.69756  -0.43358  -0.59790
H    5.81297  -1.22539  -1.89952
H    4.68426   0.56815  -1.69104
H    2.95010   2.24274  -1.63040

27 2 9 23 F
15 4 14 3 100.0 B
15 4 14 3 S 8 10.0
23 10 11 6 F
14 4 15 16 F
19 5 18 17 F

