%mem=5GB
%nproc=4
#HF/6-31G* nosymm opt 
 
Mol rotamer scan

0,1
N    5.21700  -2.14000  -0.36400
N    4.36100  -3.93600   0.69600
N    1.90000   3.25800  -0.92500
N   -0.03200   2.25300  -0.76000
N   -4.13100  -1.08900   1.04200
N    1.79300   0.91600  -0.48900
C    5.78600  -0.13700  -1.65100
C    4.89000  -0.85100  -0.69400
C    4.24400  -2.64800   0.36600
C    3.67300  -0.42600  -0.22900
C    3.11500   0.86900  -0.49600
C    3.87200   2.00800  -0.66900
C    3.22600   3.20000  -0.89100
C    1.28600   2.10900  -0.71000
C   -1.02600   1.38600  -0.26900
C   -1.28500   0.18100  -0.91100
C   -2.31900  -0.64700  -0.46100
C   -3.11300  -0.26400   0.62300
C   -3.85700  -2.50700   1.30600
C   -5.35300  -0.55300   1.65400
C   -2.87000   0.97000   1.23800
C   -1.83400   1.79400   0.78700
S    2.81000  -1.70500   0.58300
H    5.21500   0.44300  -2.37500
H    6.37700  -0.86600  -2.20600
H    6.48000   0.51200  -1.11800
H    5.18900  -4.34600   0.29400
H    3.51000  -4.47100   0.68100
H   -0.16800   3.23800  -0.63400
H    4.94200   2.00400  -0.56100
H    3.76400   4.14100  -1.02400
H   -0.66600  -0.11200  -1.75500
H   -2.51400  -1.58800  -0.96500
H   -4.41400  -2.85000   2.18200
H   -2.78900  -2.65800   1.49200
H   -4.15400  -3.10600   0.44000
H   -6.17600  -1.26400   1.53500
H   -5.63500   0.38700   1.17100
H   -5.19000  -0.37300   2.72000
H   -3.47700   1.28800   2.08000
H   -1.64500   2.75100   1.26500

