%mem=5GB
%nproc=4
#HF/6-31G* nosymm opt 
 
Mol rotamer scan

0,1
N    4.45600  -2.61600  -0.28800
N    6.61800  -3.22700  -0.40500
N    2.46000   3.33800  -1.31400
N    0.53200   2.35900  -0.98800
N   -3.36000  -1.05800   1.15400
N    2.35000   0.99800  -0.86300
C    2.17900  -1.73500  -0.31100
C    3.65000  -1.51600  -0.44400
C    5.71400  -2.24600  -0.39600
C    4.31800  -0.34500  -0.73100
C    3.66800   0.92600  -0.93900
C    4.42000   2.04900  -1.21000
C    3.78300   3.25100  -1.39600
C    1.84700   2.19900  -1.05700
C   -0.41900   1.48000  -0.43600
C   -0.80300   0.34100  -1.13200
C   -1.77800  -0.51100  -0.60400
C   -2.39000  -0.22600   0.62400
C   -4.01800  -2.10400   0.35800
C   -3.61200  -1.11700   2.60200
C   -2.01600   0.94700   1.29400
C   -1.04200   1.79800   0.76300
S    6.04300  -0.60300  -0.82100
H    1.76700  -1.12400   0.49200
H    1.97400  -2.78000  -0.07800
H    1.66800  -1.49000  -1.24200
H    7.38100  -3.10000  -1.04700
H    6.16000  -4.12500  -0.40900
H    0.41800   3.34000  -0.81800
H    5.49500   2.00000  -1.27500
H    4.32700   4.17300  -1.61000
H   -0.32600   0.11800  -2.08200
H   -2.03900  -1.40700  -1.15700
H   -4.93000  -2.44800   0.85500
H   -3.34200  -2.95500   0.23100
H   -4.29200  -1.71200  -0.62500
H   -4.06600  -2.07300   2.87900
H   -4.28900  -0.30900   2.89400
H   -2.67200  -1.01300   3.15200
H   -2.49600   1.21800   2.23000
H   -0.76100   2.70700   1.28700

