%mem=5GB
%nproc=4
#HF/6-31G* nosymm opt 
 
Mol rotamer scan

0,1
N    4.09800  -2.79400  -0.99800
N    6.19800  -3.50500  -1.38100
N    2.51900   3.35900  -0.62800
N    0.53700   2.46300  -0.40800
N   -3.30000  -1.27000   1.25400
N    2.24900   0.98900  -0.68200
C    1.89700  -1.78300  -0.68500
C    3.37200  -1.63600  -0.86900
C    5.37400  -2.49200  -1.10900
C    4.11400  -0.47700  -0.94800
C    3.55300   0.84800  -0.84500
C    4.37700   1.95200  -0.91300
C    3.82700   3.20500  -0.80200
C    1.83100   2.23400  -0.58800
C   -0.45900   1.55200  -0.00800
C   -0.93500   1.57600   1.29600
C   -1.88600   0.63800   1.71300
C   -2.36100  -0.34400   0.83400
C   -3.58000  -2.50100   0.50100
C   -4.22200  -0.98500   2.36300
C   -1.85900  -0.36200  -0.47500
C   -0.91100   0.57800  -0.89000
S    5.80700  -0.82100  -1.20100
H    1.57500  -1.32300   0.24900
H    1.62600  -2.83800  -0.65300
H    1.36000  -1.32100  -1.51300
H    6.93500  -3.29400  -2.03000
H    5.67300  -4.35000  -1.54200
H    0.51000   3.38700  -0.02000
H    5.44200   1.84800  -1.04600
H    4.43000   4.11400  -0.84400
H   -0.55400   2.31900   1.99000
H   -2.23200   0.66500   2.74100
H   -4.10700  -3.22400   1.13000
H   -2.64400  -2.95800   0.16700
H   -4.20000  -2.27200  -0.37000
H   -5.11700  -1.60900   2.29400
H   -4.53300   0.06400   2.33400
H   -3.72700  -1.18500   3.31700
H   -2.20400  -1.10200  -1.18900
H   -0.51300   0.55700  -1.90100

